Welcome to the CBC MILP Solver 
Version: 2.9.8 
Build Date: Apr 18 2016 

command line - /opt/maxeler/maxcompiler/bin/cbc GaussianBlurDFEKernel_schedule_C.mps.gz -threads 4 -solve -printi csv -solu GaussianBlurDFEKernel_schedule_C.csv (default strategy 1)
At line 1 NAME           CxSchedule
At line 2 ROWS
At line 327 COLUMNS
At line 804 RHS
At line 967 BOUNDS
At line 1241 ENDATA
Problem CxSchedule has 323 rows, 273 columns and 806 elements
Coin0008I CxSchedule read with 0 errors
threads was changed from 0 to 4
Continuous objective value is 320 - 0.00 seconds
Cgl0003I 0 fixed, 365 tightened bounds, 0 strengthened rows, 0 substitutions
Cgl0003I 0 fixed, 218 tightened bounds, 0 strengthened rows, 0 substitutions
Cgl0003I 0 fixed, 186 tightened bounds, 0 strengthened rows, 0 substitutions
Cgl0003I 0 fixed, 139 tightened bounds, 0 strengthened rows, 0 substitutions
Cgl0003I 0 fixed, 83 tightened bounds, 0 strengthened rows, 0 substitutions
Cgl0003I 0 fixed, 32 tightened bounds, 0 strengthened rows, 0 substitutions
Cgl0003I 0 fixed, 12 tightened bounds, 0 strengthened rows, 0 substitutions
Cgl0003I 0 fixed, 1 tightened bounds, 0 strengthened rows, 0 substitutions
Cgl0004I processed model has 323 rows, 271 columns (271 integer (0 of which binary)) and 806 elements
Cutoff increment increased from 1e-05 to 0.9999
Cbc0012I Integer solution of 320 found by DiveCoefficient after 0 iterations and 0 nodes (0.01 seconds)
Cbc0030I Thread 0 used 0 times,  waiting to start 0.0042741299, 0 cpu time, 0 locks, 0 locked, 0 waiting for locks
Cbc0030I Thread 1 used 0 times,  waiting to start 0.0038332939, 0 cpu time, 0 locks, 0 locked, 0 waiting for locks
Cbc0030I Thread 2 used 0 times,  waiting to start 0.0023360252, 0 cpu time, 0 locks, 0 locked, 0 waiting for locks
Cbc0030I Thread 3 used 0 times,  waiting to start 0.001616478, 0 cpu time, 0 locks, 0 locked, 0 waiting for locks
Cbc0030I Main thread 0 waiting for threads,  1 locks, 6.4373016e-06 locked, 7.1525574e-07 waiting for locks
Cbc0001I Search completed - best objective 320, took 0 iterations and 0 nodes (0.02 seconds)
Cbc0035I Maximum depth 0, 0 variables fixed on reduced cost
Cuts at root node changed objective from 320 to 320
Probing was tried 0 times and created 0 cuts of which 0 were active after adding rounds of cuts (0.000 seconds)
Gomory was tried 0 times and created 0 cuts of which 0 were active after adding rounds of cuts (0.000 seconds)
Knapsack was tried 0 times and created 0 cuts of which 0 were active after adding rounds of cuts (0.000 seconds)
Clique was tried 0 times and created 0 cuts of which 0 were active after adding rounds of cuts (0.000 seconds)
MixedIntegerRounding2 was tried 0 times and created 0 cuts of which 0 were active after adding rounds of cuts (0.000 seconds)
FlowCover was tried 0 times and created 0 cuts of which 0 were active after adding rounds of cuts (0.000 seconds)
TwoMirCuts was tried 0 times and created 0 cuts of which 0 were active after adding rounds of cuts (0.000 seconds)

Result - Optimal solution found

Objective value:                320.00000000
Enumerated nodes:               0
Total iterations:               0
Time (CPU seconds):             0.02
Time (Wallclock seconds):       0.03

Option for printingOptions changed from normal to csv
Total time (CPU seconds):       0.03   (Wallclock seconds):       0.03

